3 
4  55 
5  06 17 36 44 52 
6  01 11 19 27 34 42 49 57 
7  04 12 19 27 34 42 49 57 
8  04 12 19 27 34 42 49 57 
9  04 11 19 26 34 41 49 56 
10  04 11 19 26 34 41 49 56 
11  04 11 19 26 34 41 49 56 
12  04 11 19 26 34 41 49 56 
13  04 11 19 26 34 41 49 56 
14  04 11 19 26 34 41 49 56 
15  04 11 19 26 34 41 49 56 
16  04 11 19 26 34 41 49 56 
17  04 11 19 26 34 41 49 56 
18  04 11 19 26 34 41 49 56 
19  04 11 19 26 34 41 49 56 
20  04 13 28 43 58 
21  13 28 43 57 
22  12 28 43 57 
23 
